 H  C  O                                
    1.000000000000000     
    10.0000000000000000    0.0000000000000000    0.0000000000000000
     0.0000000000000000   10.0000000000000000    0.0000000000000000
     0.0000000000000000    0.0000000000000000   10.0000000000000000
   H    C    O 
     3     1     1
Direct
  0.3923780031614103  0.5686496709033487  0.5127284115165325
  0.5177898556507569  0.5050602007227226  0.6201456241883434
  0.5440200440440941  0.6518720269543813  0.5138117644504454
  0.5010091912639810  0.5491998078438179  0.5189511244513780
  0.5357324817133758  0.4645740890481913  0.4145838591920871
 
  0.00000000E+00  0.00000000E+00  0.00000000E+00
  0.00000000E+00  0.00000000E+00  0.00000000E+00
  0.00000000E+00  0.00000000E+00  0.00000000E+00
  0.00000000E+00  0.00000000E+00  0.00000000E+00
  0.00000000E+00  0.00000000E+00  0.00000000E+00
