 H  C  O                                
    1.000000000000000     
    10.0000000000000000    0.0000000000000000    0.0000000000000000
     0.0000000000000000   10.0000000000000000    0.0000000000000000
     0.0000000000000000    0.0000000000000000   10.0000000000000000
   H    C    O 
     1     1     1
Direct
  0.5207221160315811  0.5171012301915862  0.6210855624785028
  0.4999764659070780  0.5375966851142986  0.5123998970538708
  0.5311455171229456  0.4691618354776165  0.4196167893212180
 
  0.00000000E+00  0.00000000E+00  0.00000000E+00
  0.00000000E+00  0.00000000E+00  0.00000000E+00
  0.00000000E+00  0.00000000E+00  0.00000000E+00
