 H  C  O                                
    1.000000000000000     
    10.0000000000000000    0.0000000000000000    0.0000000000000000
     0.0000000000000000   10.0000000000000000    0.0000000000000000
     0.0000000000000000    0.0000000000000000   10.0000000000000000
   H    C    O 
     2     1     1
Direct
  0.3857812619103081  0.5674730948298162  0.5202770526500583
  0.5564007272190761  0.6437938655633056  0.5253013343446112
  0.4936789409245186  0.5565477723848585  0.4923831301029339
  0.5357135341224749  0.4644517812965228  0.4235046143112516
 
  0.00000000E+00  0.00000000E+00  0.00000000E+00
  0.00000000E+00  0.00000000E+00  0.00000000E+00
  0.00000000E+00  0.00000000E+00  0.00000000E+00
  0.00000000E+00  0.00000000E+00  0.00000000E+00
